param set_len = 24;
param target = 212524765;
param values := [0] 7932162 [1] 22202354 [2] 23781082 [3] 3147751 [4] 13252016 [5] 29221174 [6] 30660855 [7] 27505751 [8] 18876827 [9] 18622844 [10] 29957846 [11] 3451172 [12] 9876265 [13] 13625467 [14] 17692369 [15] 33387546 [16] 17569415 [17] 32502155 [18] 24681736 [19] 6325204 [20] 4724823 [21] 17122869 [22] 1846393 [23] 9959068 ;
